33 1000
8 144
4 196
7 144
6 169
4 149
5 109
8 112
6 160
7 160
11 122
6 192
2 192
4 196
5 188
10 128
10 17
11 112
4 128
5 149
3 150
4 169
10 136
11 160
6 122
8 160
9 188
3 109
4 165
3 192
3 165
6 150
8 192
5 136
